
******************************************************************************
This program contains Ipopt, a library for large-scale nonlinear optimization.
 Ipopt is released as open source code under the Eclipse Public License (EPL).
         For more information visit http://projects.coin-or.org/Ipopt
******************************************************************************

This is Ipopt version 3.12.6, running with linear solver ma57.

Number of nonzeros in equality constraint Jacobian...:    17493
Number of nonzeros in inequality constraint Jacobian.:        0
Number of nonzeros in Lagrangian Hessian.............:    14995

Total number of variables............................:     9997
                     variables with only lower bounds:        0
                variables with lower and upper bounds:        0
                     variables with only upper bounds:        0
Total number of equality constraints.................:     7497
Total number of inequality constraints...............:        0
        inequality constraints with only lower bounds:        0
   inequality constraints with lower and upper bounds:        0
        inequality constraints with only upper bounds:        0

iter    objective    inf_pr   inf_du lg(mu)  ||d||  lg(rg) alpha_du alpha_pr  ls
   0  1.3494600e+05 1.00e+01 5.00e+01  -1.0 0.00e+00    -  0.00e+00 0.00e+00   0
   1  4.1922603e+04 4.00e+00 9.06e+01  -1.0 2.67e+00    -  1.00e+00 1.00e+00f  1
Reallocating memory for MA57: lfact (401748)
Reallocating memory for MA57: lfact (957285)
Reallocating memory for MA57: lfact (2198162)
Reallocating memory for MA57: lfact (4956831)
Reallocating memory for MA57: lfact (5748179)
   2  4.1915178e+04 1.84e+01 8.43e+05  -1.0 1.95e+03    -  1.00e+00 1.95e-03f 10
   3r 4.1915178e+04 1.84e+01 9.99e+02   1.3 0.00e+00    -  0.00e+00 4.77e-07R 22
   4r 4.0925707e+04 5.92e+00 9.78e+02   1.3 1.34e+04    -  7.44e-01 1.36e-03f  1
   5  3.6663462e+04 3.88e+02 7.77e+07  -1.0 1.00e+04    -  1.00e+00 1.95e-03f 10
   6  3.5582074e+04 3.41e+02 6.83e+07  -1.0 5.23e+01    -  1.00e+00 1.25e-01f  4
   7  3.3795438e+04 1.92e+02 3.84e+07  -1.0 1.05e+01    -  1.00e+00 5.00e-01f  2
   8  4.3376470e+04 1.80e+02 3.60e+07  -1.0 8.86e+00    -  1.00e+00 6.25e-02h  5
   9  2.0241107e+04 1.79e+02 3.58e+07  -1.0 2.97e+02    -  1.00e+00 7.81e-03f  8
iter    objective    inf_pr   inf_du lg(mu)  ||d||  lg(rg) alpha_du alpha_pr  ls
  10  2.0269670e+04 1.79e+02 3.57e+07  -1.0 2.19e+02    -  1.00e+00 4.88e-04h 12
  11  1.7424675e+04 1.68e+02 3.35e+07  -1.0 6.24e+01    -  1.00e+00 6.25e-02f  5
  12  1.8806946e+04 1.67e+02 3.35e+07  -1.0 5.78e+02   2.0 1.00e+00 1.95e-03h 10
  13  1.9273497e+04 1.67e+02 3.34e+07  -1.0 1.04e+03   3.3 1.00e+00 9.77e-04h 11
  14  1.8485211e+04 1.57e+02 2.85e+09  -1.0 1.03e+02    -  1.00e+00 6.25e-02f  5
  15  1.3399846e+06 1.32e+03 9.64e+10  -1.0 3.63e+01   5.6 1.00e+00 1.00e+00w  1
  16  7.0561638e+07 5.46e+03 2.11e+11  -1.0 7.39e+01   5.1 1.00e+00 1.00e+00w  1
  17  6.5903044e+06 1.49e+03 5.63e+13  -1.0 3.85e+01   9.1 1.00e+00 1.00e+00w  1
  18  1.6785217e+04 1.47e+02 2.68e+09  -1.0 4.36e+01   9.5 1.00e+00 6.25e-02f  4
  19  2.3758854e+04 1.13e+02 3.76e+10  -1.0 9.12e+00   9.1 1.00e+00 2.50e-01h  3
iter    objective    inf_pr   inf_du lg(mu)  ||d||  lg(rg) alpha_du alpha_pr  ls
  20  2.4486125e+04 1.09e+02 1.75e+13  -1.0 1.79e+02   9.5 1.00e+00 3.12e-02h  6
  21  2.4414858e+04 8.38e+01 1.34e+13  -1.0 2.43e+01   9.0 1.00e+00 2.50e-01f  3
  22  2.6528859e+04 7.86e+01 1.25e+13  -1.0 4.18e+01   9.4 1.00e+00 6.25e-02h  5
  23  2.6614540e+04 7.62e+01 1.22e+13  -1.0 1.86e+01   9.9 1.00e+00 3.12e-02h  6
  24  4.0079561e+04 6.70e+01 5.38e+13  -1.0 4.47e+01   9.4 1.00e+00 1.25e-01h  4
  25  4.0027794e+04 6.67e+01 5.36e+13  -1.0 1.79e+02   9.8 1.00e+00 3.91e-03f  9
  26  4.0269977e+04 6.67e+01 1.32e+14  -1.0 1.83e+03   9.3 1.00e+00 4.88e-04h 12
  27  4.0412549e+04 6.66e+01 9.51e+14  -1.0 1.83e+03   9.8 1.00e+00 4.88e-04h 12
  28  7.6201583e+07 5.43e+03 9.52e+16  -1.0 7.37e+01  10.2 1.00e+00 1.00e+00w  1
  29  1.0819707e+07 1.36e+03 7.42e+16  -1.0 3.69e+01    -  1.00e+00 1.00e+00w  1
iter    objective    inf_pr   inf_du lg(mu)  ||d||  lg(rg) alpha_du alpha_pr  ls
  30  1.8416874e+11 1.29e+05 9.04e+22  -1.0 3.71e+02  14.2 1.00e+00 1.00e+00w  1
  31  4.1474481e+04 6.65e+01 9.49e+14  -1.0 2.03e+03  14.7 1.00e+00 1.95e-03h  9
  32  4.2394645e+04 6.63e+01 9.46e+14  -1.0 3.98e+01  14.2 1.00e+00 3.91e-03h  9
  33  4.3051562e+04 6.62e+01 9.46e+14  -1.0 2.33e+02  13.7 1.00e+00 1.22e-04h 14
  34  4.2962993e+04 6.62e+01 9.46e+14  -1.0 2.04e+03  13.2 1.00e+00 7.63e-06f 18
  35  4.1869708e+04 6.62e+01 3.62e+17  -1.0 8.60e+02  12.8 1.00e+00 9.77e-04f 11
  36  4.3762207e+04 6.59e+01 3.60e+17  -1.0 6.61e+01    -  1.00e+00 3.91e-03h  9
  37  4.3461814e+04 6.59e+01 3.60e+17  -1.0 4.45e+02    -  1.00e+00 2.44e-04f 13
  38  4.3461642e+04 6.59e+01 3.24e+17  -1.0 8.23e-02  18.6 1.00e+00 1.00e+00h  1
  39  4.3460535e+04 6.59e+01 2.44e+17  -1.0 1.85e-01  18.1 1.00e+00 1.00e+00h  1
iter    objective    inf_pr   inf_du lg(mu)  ||d||  lg(rg) alpha_du alpha_pr  ls
  40  4.3460186e+04 6.59e+01 2.17e+17  -1.0 6.19e-02  18.5 1.00e+00 1.00e+00h  1
  41  4.3457790e+04 6.59e+01 1.58e+17  -1.0 1.35e-01  18.1 1.00e+00 1.00e+00h  1
  42  4.3456801e+04 6.59e+01 1.39e+17  -1.0 4.45e-02  18.5 1.00e+00 1.00e+00h  1
  43  4.3451979e+04 6.59e+01 9.79e+16  -1.0 9.42e-02  18.0 1.00e+00 1.00e+00h  1
  44  4.3449972e+04 6.59e+01 8.46e+16  -1.0 3.05e-02  18.4 1.00e+00 1.00e+00h  1
  45  4.3440798e+04 6.59e+01 5.75e+16  -1.0 6.23e-02  18.0 1.00e+00 1.00e+00h  1
  46  4.3436903e+04 6.59e+01 4.89e+16  -1.0 1.98e-02  18.4 1.00e+00 1.00e+00h  1
  47  4.3413928e+04 6.59e+01 3.59e+16  -1.0 4.37e-02  17.9 1.00e+00 1.00e+00h  1
  48  4.3403365e+04 6.59e+01 3.33e+16  -1.0 1.52e-02  18.3 1.00e+00 1.00e+00h  1
  49  4.3345127e+04 6.59e+01 1.07e+17  -1.0 2.59e-01  17.9 1.00e+00 5.00e-01f  2
iter    objective    inf_pr   inf_du lg(mu)  ||d||  lg(rg) alpha_du alpha_pr  ls
  50  4.3327165e+04 6.59e+01 1.33e+17  -1.0 8.14e-02  18.3 1.00e+00 5.00e-01h  2
  51  4.3325359e+04 6.59e+01 1.44e+17  -1.0 8.82e+00  17.8 1.00e+00 1.95e-03h 10
  52  4.3324962e+04 6.59e+01 1.44e+17  -1.0 1.31e-01  18.2 1.00e+00 7.81e-03h  8
  53  4.3324846e+04 6.59e+01 1.44e+17  -1.0 3.62e-02  18.7 1.00e+00 7.81e-03h  8
  54  4.3266651e+04 6.59e+01 2.46e+17  -1.0 1.60e-01  18.2 1.00e+00 1.00e+00h  1
  55  4.3243146e+04 6.59e+01 2.90e+17  -1.0 7.08e-02  18.6 1.00e+00 1.00e+00h  1
  56  4.3138248e+04 6.59e+01 5.41e+17  -1.0 3.96e-01  18.1 1.00e+00 1.00e+00f  1
  57  4.3098524e+04 6.59e+01 6.55e+17  -1.0 1.80e-01  18.6 1.00e+00 1.00e+00h  1
  58  4.2942675e+04 6.59e+01 1.37e+18  -1.0 1.13e+00  18.1 1.00e+00 1.00e+00f  1
  59  4.2916196e+04 6.59e+01 1.70e+18  -1.0 5.26e-01  18.5 1.00e+00 1.00e+00h  1
iter    objective    inf_pr   inf_du lg(mu)  ||d||  lg(rg) alpha_du alpha_pr  ls
  60  4.2916150e+04 6.59e+01 1.74e+18  -1.0 3.82e+00  18.0 1.00e+00 1.56e-02h  7
  61  4.2916127e+04 6.59e+01 1.76e+18  -1.0 7.75e-01  18.5 1.00e+00 3.12e-02h  6
  62r 4.2916127e+04 6.59e+01 9.99e+02   1.8 0.00e+00  18.0 0.00e+00 4.77e-07R 22
  63r 3.9166256e+04 2.24e+01 9.96e+02   1.8 5.19e+04    -  6.70e-02 1.26e-03f  1
  64  3.8902125e+04 2.24e+01 2.22e+03  -1.0 1.56e+03    -  1.00e+00 2.44e-04f 13
  65  3.4813852e+04 1.07e+02 6.75e+05  -1.0 1.31e+03    -  1.00e+00 7.81e-03f  8
  66  3.4976674e+04 1.07e+02 6.74e+05  -1.0 2.83e+02    -  1.00e+00 9.77e-04h 11
  67  3.5712475e+04 1.07e+02 6.73e+05  -1.0 1.96e+02    -  1.00e+00 1.95e-03h 10
  68  3.6081626e+04 1.06e+02 6.68e+05  -1.0 6.46e+01    -  1.00e+00 7.81e-03h  8
  69  4.0951090e+04 1.03e+02 1.10e+06  -1.0 1.05e+02    -  1.00e+00 3.12e-02h  6
iter    objective    inf_pr   inf_du lg(mu)  ||d||  lg(rg) alpha_du alpha_pr  ls
  70  4.2596424e+04 1.02e+02 1.09e+06  -1.0 1.36e+02    -  1.00e+00 3.91e-03h  9
  71  4.1206567e+04 1.02e+02 2.50e+07  -1.0 1.72e+02    -  1.00e+00 7.81e-03f  8
  72  4.0175641e+04 1.01e+02 2.49e+07  -1.0 5.10e+02    -  1.00e+00 3.91e-03f  9
  73  3.8924871e+04 1.01e+02 2.49e+07  -1.0 3.06e+02    -  1.00e+00 9.77e-04f 11
  74  2.6123405e+11 7.25e+05 8.69e+11  -1.0 8.51e+02    -  1.00e+00 1.00e+00w  1
  75  2.6118544e+11 7.24e+05 2.19e+17  -1.0 6.85e-01  17.5 1.00e+00 1.00e+00w  1
  76  3.1048430e+11 5.52e+05 5.47e+16  -1.0 7.43e+02    -  1.00e+00 1.00e+00w  1
  77  3.8927394e+04 1.01e+02 2.49e+07  -1.0 3.72e+02    -  1.00e+00 1.22e-04h 13
  78  3.7980346e+04 1.00e+02 3.39e+09  -1.0 4.30e+02    -  1.00e+00 7.81e-03f  8
  79r 3.7980346e+04 1.00e+02 9.99e+02   2.0 0.00e+00    -  0.00e+00 4.77e-07R 22
iter    objective    inf_pr   inf_du lg(mu)  ||d||  lg(rg) alpha_du alpha_pr  ls
  80r 3.4937026e+04 2.64e+01 9.95e+02   2.0 7.56e+04    -  9.96e-02 1.31e-03f  1
  81  3.4915615e+04 2.64e+01 1.86e+03  -1.0 1.90e+03    -  1.00e+00 1.22e-04f 14
  82  3.5203535e+04 2.63e+01 6.36e+03  -1.0 3.67e+02    -  1.00e+00 1.95e-03h 10
  83  3.5686086e+04 2.62e+01 6.34e+03  -1.0 1.18e+02    -  1.00e+00 3.91e-03h  9
  84  3.5765781e+04 2.62e+01 1.31e+04  -1.0 1.49e+03    -  1.00e+00 9.77e-04h 11
  85  3.5870432e+04 2.62e+01 1.31e+04  -1.0 5.35e+02    -  1.00e+00 1.22e-04h 14
  86  3.7475707e+04 2.60e+01 1.03e+05  -1.0 4.48e+02    -  1.00e+00 7.81e-03h  8
  87  3.8327322e+04 2.59e+01 4.44e+05  -1.0 6.26e+02    -  1.00e+00 3.91e-03h  9
  88  3.6274202e+04 2.57e+01 4.41e+05  -1.0 2.98e+02    -  1.00e+00 7.81e-03f  8
  89  3.7002740e+04 2.57e+01 4.40e+05  -1.0 3.44e+02    -  1.00e+00 4.88e-04h 12
iter    objective    inf_pr   inf_du lg(mu)  ||d||  lg(rg) alpha_du alpha_pr  ls
  90  3.7039917e+04 2.57e+01 1.68e+07  -1.0 3.24e+03    -  1.00e+00 1.22e-04h 14
  91  1.8036318e+08 1.23e+05 4.98e+11  -1.0 3.51e+02    -  1.00e+00 1.00e+00w  1
  92  1.8030764e+08 1.23e+05 1.53e+16  -1.0 1.44e-01  17.0 1.00e+00 1.00e+00w  1
  93  3.9845068e+09 8.95e+04 3.84e+15  -1.0 2.99e+02    -  1.00e+00 1.00e+00w  1
  94  3.6937651e+04 2.56e+01 1.67e+07  -1.0 1.43e+04    -  1.00e+00 3.91e-03f  8
  95  3.6949952e+04 2.56e+01 1.67e+07  -1.0 8.88e+02    -  1.00e+00 6.10e-05h 15
  96  3.6928156e+04 2.55e+01 1.67e+07  -1.0 2.52e+02    -  1.00e+00 9.77e-04f 11
  97  3.6724165e+04 2.54e+01 9.40e+07  -1.0 1.70e+02    -  1.00e+00 3.91e-03f  9
  98  3.6882118e+04 2.54e+01 9.39e+07  -1.0 4.65e+02    -  1.00e+00 4.88e-04h 12
  99  3.6925611e+04 2.54e+01 9.39e+07  -1.0 5.46e+02    -  1.00e+00 6.10e-05h 15
iter    objective    inf_pr   inf_du lg(mu)  ||d||  lg(rg) alpha_du alpha_pr  ls
 100  3.6935081e+04 2.54e+01 9.39e+07  -1.0 6.09e+02    -  1.00e+00 1.53e-05h 17
 101  3.8250278e+04 2.54e+01 9.37e+07  -1.0 3.18e+02    -  1.00e+00 1.95e-03h 10
 102  3.8227543e+04 2.54e+01 4.89e+08  -1.0 4.51e+03    -  1.00e+00 6.10e-05f 15
 103r 3.8227543e+04 2.54e+01 9.99e+02   1.4 0.00e+00    -  0.00e+00 4.77e-07R 22
 104r 3.4420069e+04 1.07e+01 9.96e+02   1.4 1.95e+04    -  2.42e-02 1.29e-03f  1
 105r 3.4420069e+04 1.07e+01 9.99e+02   1.0 0.00e+00    -  0.00e+00 4.77e-07R 22
 106r 3.1181390e+04 3.98e+00 9.96e+02   1.0 6.79e+03    -  1.03e-02 1.56e-03f  1
 107r 3.1181390e+04 3.98e+00 9.99e+02   0.6 0.00e+00    -  0.00e+00 4.77e-07R 22
 108r 2.9850012e+04 3.23e+00 9.97e+02   0.6 1.38e+03    -  4.37e-03 1.81e-03f  1
 109r 2.9850012e+04 3.23e+00 9.99e+02   0.5 0.00e+00    -  0.00e+00 4.77e-07R 22
iter    objective    inf_pr   inf_du lg(mu)  ||d||  lg(rg) alpha_du alpha_pr  ls
 110r 3.1833937e+04 3.20e+00 9.98e+02   0.5 7.37e+02    -  1.30e-01 1.85e-03f  1
 111r 8.2651557e+04 3.40e+01 9.80e+02   0.5 3.38e+02   0.0 2.21e-01 1.72e-02f  1
 112r 1.1700908e+05 3.32e+01 9.63e+02   0.5 6.53e+01   1.3 1.36e-02 2.29e-02f  1
 113r 1.2036553e+05 3.26e+01 9.64e+02   0.5 1.66e+02   1.8 1.05e-01 1.81e-02f  1
 114r 1.1929979e+05 3.17e+01 9.49e+02   0.5 9.11e+00   2.2 7.40e-02 2.75e-02f  1
 115r 9.6756362e+04 2.22e+01 9.93e+02   0.5 2.83e+00   2.6 6.94e-02 3.26e-01f  1
 116r 8.8397477e+04 1.92e+01 9.75e+02   0.5 2.37e+00   3.0 7.33e-02 1.39e-01f  1
 117r 8.5818541e+04 1.83e+01 9.94e+02   0.5 7.20e+00   2.6 1.01e-02 4.71e-02f  1
 118r 7.2965051e+04 1.36e+01 1.03e+03   0.5 2.16e+00   3.0 6.13e-02 2.78e-01f  1
 119r 7.1689019e+04 1.31e+01 1.13e+03   0.5 3.58e+01   2.5 1.03e-02 3.59e-02f  1
iter    objective    inf_pr   inf_du lg(mu)  ||d||  lg(rg) alpha_du alpha_pr  ls
 120r 6.9430038e+04 1.23e+01 1.06e+03   0.5 1.95e+00   2.9 2.22e-01 6.71e-02f  1
 121r 6.4011057e+04 9.94e+00 1.38e+03   0.5 1.75e+00   3.4 7.91e-02 2.00e-01f  1
 122r 6.2467323e+04 9.35e+00 1.37e+03   0.5 1.86e+00   2.9 1.30e-01 6.06e-02f  1
 123r 5.9396056e+04 7.99e+00 1.60e+03   0.5 1.52e+00   3.3 4.07e-01 1.51e-01f  1
 124r 5.5916894e+04 6.64e+00 1.48e+03   0.5 2.01e+00   2.8 2.60e-01 1.78e-01f  1
 125r 5.3463236e+04 5.47e+00 1.61e+03   0.5 1.28e+00   3.3 3.62e-01 1.86e-01f  1
 126r 5.1876027e+04 4.26e+00 2.34e+03   0.5 1.10e+00   3.7 2.25e-01 2.37e-01f  1
 127r 4.9665291e+04 3.27e+00 2.14e+03   0.5 9.98e-01   3.2 1.95e-01 2.48e-01f  1
 128r 4.9219210e+04 2.95e+00 2.25e+03   0.5 7.85e-01   3.6 2.82e-01 9.98e-02f  1
 129r 4.9020851e+04 2.71e+00 2.71e+03   0.5 6.70e-01   4.1 1.13e-01 9.02e-02f  1
iter    objective    inf_pr   inf_du lg(mu)  ||d||  lg(rg) alpha_du alpha_pr  ls
 130  5.2590877e+04 4.97e+00 9.50e+03  -1.0 8.03e+00    -  1.00e+00 2.50e-01h  3
 131  3.9791597e+04 3.98e+01 1.06e+05  -1.0 6.31e+00    -  1.00e+00 1.00e+00f  1
 132  3.9791596e+04 3.98e+01 8.90e+10  -1.0 2.50e-06  16.6 1.00e+00 1.00e+00h  1
 133  3.2186179e+04 9.95e+00 2.22e+10  -1.0 3.15e+00    -  1.00e+00 1.00e+00f  1
 134  2.9562681e+04 2.49e+00 5.56e+09  -1.0 1.58e+00    -  1.00e+00 1.00e+00f  1
 135  2.9378272e+04 6.22e-01 1.39e+09  -1.0 7.89e-01    -  1.00e+00 1.00e+00f  1
 136  2.9981142e+04 2.22e-01 4.23e+09  -1.0 4.71e-01    -  1.00e+00 1.00e+00h  1
 137  3.0767679e+04 9.86e-01 1.56e+11  -1.0 9.93e-01    -  1.00e+00 1.00e+00h  1
 138  3.1513200e+04 8.82e-01 7.98e+10  -1.0 9.39e-01    -  1.00e+00 1.00e+00h  1
 139  3.2055857e+04 2.21e-01 1.99e+10  -1.0 4.70e-01    -  1.00e+00 1.00e+00h  1
iter    objective    inf_pr   inf_du lg(mu)  ||d||  lg(rg) alpha_du alpha_pr  ls
 140  3.2499136e+04 5.51e-02 4.99e+09  -1.0 2.35e-01    -  1.00e+00 1.00e+00h  1
 141  3.2499136e+04 5.51e-02 4.99e+09  -1.0 4.21e-07  16.1 1.00e+00 1.00e+00h  1
 142  3.2499136e+04 5.51e-02 5.00e+09  -1.0 1.26e-06  15.6 1.00e+00 1.00e+00h  1
 143  3.2499136e+04 5.51e-02 5.00e+09  -1.0 3.80e-06  15.1 1.00e+00 1.00e+00h  1
 144  3.2499135e+04 5.51e-02 5.01e+09  -1.0 1.14e-05  14.6 1.00e+00 1.00e+00h  1
 145  3.2499135e+04 5.51e-02 5.01e+09  -1.0 3.42e-05  14.2 1.00e+00 1.00e+00h  1
 146  3.2499134e+04 5.51e-02 5.01e+09  -1.0 1.29e-05  14.6 1.00e+00 1.00e+00h  1
 147  3.2499134e+04 5.50e-02 5.21e+09  -1.0 4.01e-05  14.1 1.00e+00 1.00e+00h  1
 148  3.2499133e+04 5.50e-02 5.38e+09  -1.0 1.55e-05  14.5 1.00e+00 1.00e+00h  1
 149  3.2499133e+04 5.50e-02 5.93e+09  -1.0 5.13e-05  14.1 1.00e+00 1.00e+00h  1
iter    objective    inf_pr   inf_du lg(mu)  ||d||  lg(rg) alpha_du alpha_pr  ls
 150  3.2499133e+04 5.50e-02 6.14e+09  -1.0 1.99e-05  14.5 1.00e+00 1.00e+00h  1
 151  3.2499133e+04 5.49e-02 6.86e+09  -1.0 6.68e-05  14.0 1.00e+00 1.00e+00h  1
 152  3.2499133e+04 5.49e-02 7.14e+09  -1.0 2.61e-05  14.4 1.00e+00 1.00e+00h  1
 153  3.2499133e+04 5.48e-02 8.10e+09  -1.0 8.86e-05  14.0 1.00e+00 1.00e+00h  1
 154  3.2499134e+04 5.47e-02 8.47e+09  -1.0 3.48e-05  14.4 1.00e+00 1.00e+00h  1
 155  3.2499137e+04 5.46e-02 9.84e+09  -1.0 1.21e-04  13.9 1.00e+00 1.00e+00h  1
 156  3.2499138e+04 5.45e-02 1.10e+10  -1.0 5.09e-05  14.3 1.00e+00 1.00e+00h  1
 157r 3.2499138e+04 5.45e-02 9.98e+02  -1.0 0.00e+00  13.9 0.00e+00 4.77e-07R 22
 158r 3.2500441e+04 1.10e-02 9.87e+02  -1.0 2.95e+01    -  6.11e-01 1.83e-03f  1
 159  3.2841099e+04 5.32e-03 1.18e+03  -1.0 7.30e-02    -  1.00e+00 1.00e+00h  1
iter    objective    inf_pr   inf_du lg(mu)  ||d||  lg(rg) alpha_du alpha_pr  ls
 160  3.3096314e+04 6.32e-02 2.58e+04  -1.7 2.51e-01    -  1.00e+00 1.00e+00h  1
 161  3.3280581e+04 1.58e-02 6.45e+03  -1.7 1.26e-01    -  1.00e+00 1.00e+00h  1
 162  3.3280581e+04 1.58e-02 1.37e+07  -2.5 5.70e-07  13.4 1.00e+00 1.00e+00h  1
 163  3.3280581e+04 1.58e-02 2.74e+07  -2.5 3.42e-06  12.9 1.00e+00 1.00e+00h  1
 164  3.3280580e+04 1.58e-02 4.10e+07  -2.5 1.53e-05  12.4 1.00e+00 1.00e+00h  1
 165  3.3280575e+04 1.56e-02 5.42e+07  -2.5 6.08e-05  11.9 1.00e+00 1.00e+00h  1
 166  3.3280558e+04 1.50e-02 6.59e+07  -2.5 2.22e-04  11.5 1.00e+00 1.00e+00h  1
 167  3.3280503e+04 1.31e-02 7.27e+07  -2.5 7.35e-04  11.0 1.00e+00 1.00e+00h  1
 168  3.3280377e+04 9.13e-03 6.62e+07  -2.5 2.01e-03  10.5 1.00e+00 1.00e+00h  1
 169  3.3280350e+04 1.90e-02 4.01e+07  -2.5 3.65e-03  10.0 1.00e+00 1.00e+00h  1
iter    objective    inf_pr   inf_du lg(mu)  ||d||  lg(rg) alpha_du alpha_pr  ls
 170  3.3281888e+04 7.36e-03 3.07e+07  -2.5 8.84e-03   9.6 1.00e+00 1.00e+00H  1
 171  3.3283453e+04 5.75e-03 1.09e+07  -2.5 1.72e-02   9.1 1.00e+00 1.00e+00H  1
 172  3.3283444e+04 5.83e-03 1.46e+06  -2.5 2.27e-03   9.5 1.00e+00 1.00e+00H  1
 173  3.3283165e+04 5.00e-03 1.59e+06  -2.5 1.46e-03   9.0 1.00e+00 1.00e+00h  1
 174  3.3282986e+04 4.30e-03 3.12e+06  -2.5 1.08e-03   9.5 1.00e+00 1.00e+00h  1
 175  3.3282408e+04 2.14e-03 3.17e+06  -2.5 3.28e-03   9.0 1.00e+00 1.00e+00f  1
 176  3.3282200e+04 1.25e-03 3.36e+06  -2.5 1.30e-03   9.4 1.00e+00 1.00e+00f  1
 177  3.3281633e+04 3.11e-03 3.45e+06  -2.5 4.02e-03   8.9 1.00e+00 1.00e+00f  1
 178  3.3281500e+04 4.10e-03 3.41e+06  -2.5 1.49e-03   9.4 1.00e+00 1.00e+00h  1
 179  3.3281487e+04 4.25e-03 1.92e+06  -2.5 3.15e-04   9.8 1.00e+00 1.00e+00h  1
iter    objective    inf_pr   inf_du lg(mu)  ||d||  lg(rg) alpha_du alpha_pr  ls
 180  3.3281553e+04 4.22e-03 5.94e+05  -2.5 2.92e-04   9.3 1.00e+00 1.00e+00h  1
 181  3.3281617e+04 3.96e-03 1.96e+06  -2.5 3.62e-04   9.7 1.00e+00 1.00e+00h  1
 182  3.3281940e+04 1.13e-03 6.91e+06  -2.5 3.82e-03   9.3 1.00e+00 1.00e+00h  1
 183  3.3282087e+04 9.28e-04 9.01e+06  -2.5 1.87e-03   9.7 1.00e+00 1.00e+00h  1
 184  3.3282453e+04 2.83e-03 6.95e+06  -2.5 1.17e-02   9.2 1.00e+00 1.00e+00H  1
 185  3.3282584e+04 4.09e-03 7.14e+06  -2.5 1.66e-03   9.6 1.00e+00 1.00e+00s 22
 186r 3.3282584e+04 4.09e-03 9.99e+02  -2.4 0.00e+00   9.2 0.00e+00 0.00e+00R  1
 187r 3.3282425e+04 1.52e-03 9.79e+02  -2.4 4.93e+00    -  9.83e-01 9.95e-04f  1
 188  1.7486716e+04 1.05e+00 7.67e+02  -2.5 1.03e+00    -  1.00e+00 1.00e+00f  1
 189  2.2979699e+04 2.63e-01 1.64e+02  -2.5 5.13e-01    -  1.00e+00 1.00e+00h  1
iter    objective    inf_pr   inf_du lg(mu)  ||d||  lg(rg) alpha_du alpha_pr  ls
 190  2.7419492e+04 6.58e-02 4.28e+02  -2.5 2.56e-01    -  1.00e+00 1.00e+00h  1
 191  3.0170349e+04 1.65e-02 3.10e+02  -2.5 1.28e-01    -  1.00e+00 1.00e+00h  1
 192  3.1702577e+04 4.20e-03 3.12e+02  -2.5 6.48e-02    -  1.00e+00 1.00e+00h  1
 193  3.2520505e+04 6.16e-02 2.73e+04  -2.5 2.48e-01    -  1.00e+00 1.00e+00h  1
 194  3.2971130e+04 1.54e-02 6.97e+03  -2.5 1.24e-01    -  1.00e+00 1.00e+00h  1
 195  3.2972254e+04 6.39e-03 3.00e+06  -2.5 6.35e-03   8.7 1.00e+00 1.00e+00h  1
 196  3.2972729e+04 6.38e-03 3.00e+06  -2.5 8.71e+00    -  1.00e+00 1.95e-03h 10
 197  3.3086483e+04 5.94e-02 4.89e+08  -2.5 4.87e-01    -  1.00e+00 5.00e-01h  2
 198  3.3278303e+04 1.49e-02 1.22e+08  -2.5 1.22e-01    -  1.00e+00 1.00e+00h  1
 199  3.3280430e+04 1.47e-02 1.20e+08  -2.5 6.16e-02    -  1.00e+00 1.56e-02h  7
iter    objective    inf_pr   inf_du lg(mu)  ||d||  lg(rg) alpha_du alpha_pr  ls
 200  3.3280959e+04 1.47e-02 1.20e+08  -2.5 6.11e-02    -  1.00e+00 3.91e-03h  9
 201  3.3281223e+04 1.46e-02 1.20e+08  -2.5 6.10e-02    -  1.00e+00 1.95e-03h 10
 202  3.3281355e+04 1.46e-02 1.20e+08  -2.5 6.10e-02    -  1.00e+00 9.77e-04h 11
 203  3.3281487e+04 1.46e-02 1.19e+08  -2.5 6.09e-02    -  1.00e+00 9.77e-04h 11
 204  3.3416945e+04 3.71e-03 2.99e+07  -2.5 6.09e-02    -  1.00e+00 1.00e+00h  1
 205  3.3513192e+04 1.01e-03 7.52e+06  -2.5 3.17e-02    -  1.00e+00 1.00e+00h  1
 206r 3.3513192e+04 1.01e-03 9.97e+02  -2.5 0.00e+00  11.8 0.00e+00 4.77e-07R 22
 207r 3.3513246e+04 2.21e-04 9.44e+02  -2.5 5.18e+00    -  5.39e-02 2.81e-03f  1
 208  1.7460322e+04 1.03e+00 1.23e+02  -2.5 1.01e+00    -  1.00e+00 1.00e+00f  1
 209  2.3038990e+04 2.57e-01 3.24e+01  -2.5 5.07e-01    -  1.00e+00 1.00e+00h  1
iter    objective    inf_pr   inf_du lg(mu)  ||d||  lg(rg) alpha_du alpha_pr  ls
 210  2.7554520e+04 6.41e-02 1.87e+01  -2.5 2.53e-01    -  1.00e+00 1.00e+00h  1
 211  3.0341139e+04 1.60e-02 4.48e+01  -2.5 1.27e-01    -  1.00e+00 1.00e+00h  1
 212  3.1882899e+04 4.02e-03 1.26e+02  -3.8 6.34e-02    -  1.00e+00 1.00e+00h  1
 213  3.2698098e+04 1.01e-03 1.67e+04  -3.8 3.18e-02    -  1.00e+00 1.00e+00h  1
 214  3.3125706e+04 2.61e-04 4.24e+03  -3.8 1.62e-02    -  1.00e+00 1.00e+00h  1
 215  3.3125678e+04 2.56e-04 4.44e+05  -3.8 2.05e-06  11.3 1.00e+00 1.00e+00h  1
 216  3.3125541e+04 2.29e-04 7.46e+05  -3.8 1.03e-05  10.9 1.00e+00 1.00e+00h  1
 217  3.3125261e+04 1.51e-04 6.59e+05  -3.8 2.74e-05  10.4 1.00e+00 1.00e+00h  1
 218  3.3125649e+04 1.83e-04 6.43e+05  -3.8 8.01e-05   9.9 1.00e+00 1.00e+00h  1
 219  3.3128638e+04 3.13e-04 1.24e+06  -3.8 4.63e-04   9.4 1.00e+00 1.00e+00h  1
iter    objective    inf_pr   inf_du lg(mu)  ||d||  lg(rg) alpha_du alpha_pr  ls
 220  3.3129830e+04 4.00e-04 1.20e+06  -3.8 1.68e-04   9.9 1.00e+00 1.00e+00h  1
 221  3.3129743e+04 6.59e-05 1.15e+06  -3.8 7.58e-04   9.4 1.00e+00 1.00e+00H  1
 222  3.3129572e+04 1.35e-04 1.47e+06  -3.8 2.31e-04   9.8 1.00e+00 1.00e+00h  1
 223  3.3128852e+04 1.26e-03 3.25e+06  -3.8 1.54e-03   9.3 1.00e+00 1.00e+00f  1
 224  3.3128563e+04 1.58e-03 2.74e+06  -3.8 4.86e-04   9.8 1.00e+00 1.00e+00f  1
 225  3.3127845e+04 3.07e-03 3.89e+06  -3.8 2.07e-03   9.3 1.00e+00 1.00e+00f  1
 226  3.3127675e+04 3.24e-03 1.53e+06  -3.8 3.05e-04   9.7 1.00e+00 1.00e+00h  1
 227  3.3127608e+04 9.45e-04 5.07e+06  -3.8 3.03e-03   9.2 1.00e+00 1.00e+00h  1
 228  3.3127664e+04 4.56e-04 6.67e+06  -3.8 1.86e-03   9.6 1.00e+00 5.00e-01h  2
 229  3.3126825e+04 2.76e-02 5.21e+07  -3.8 2.67e-02   9.2 1.00e+00 1.00e+00H  1
iter    objective    inf_pr   inf_du lg(mu)  ||d||  lg(rg) alpha_du alpha_pr  ls
 230  3.3126653e+04 3.37e-02 3.85e+07  -3.8 9.82e-03   9.6 1.00e+00 1.00e+00h  1
 231  3.3125923e+04 6.04e-02 4.52e+07  -3.8 3.60e-02   9.1 1.00e+00 1.00e+00f  1
 232  3.3127320e+04 2.66e-02 1.45e+08  -3.8 5.83e-03   9.5 1.00e+00 1.00e+00H  1
 233  3.3119602e+04 5.12e-01 4.01e+08  -3.8 6.65e-01   9.1 1.00e+00 1.00e+00H  1
 234  3.3124125e+04 9.63e-02 1.15e+08  -3.8 3.01e-01   8.6 1.00e+00 1.00e+00h  1
 235  3.3125797e+04 1.04e-01 3.31e+07  -3.8 5.04e-01   9.0 1.00e+00 1.00e+00H  1
 236  3.3127189e+04 3.60e-02 1.50e+08  -3.8 5.43e-02   9.4 1.00e+00 1.00e+00h  1
 237  3.3129206e+04 1.38e-02 2.01e+08  -3.8 1.84e+00   9.0 1.00e+00 3.12e-02h  6
 238r 3.3129206e+04 1.38e-02 9.99e+02  -1.9 0.00e+00   9.4 0.00e+00 4.77e-07R 22
 239r 3.3128519e+04 1.98e-03 9.96e+02  -1.9 9.46e+00    -  4.51e-03 1.71e-03f  1
iter    objective    inf_pr   inf_du lg(mu)  ||d||  lg(rg) alpha_du alpha_pr  ls
 240  1.7484872e+04 9.24e-01 3.39e+02  -3.8 9.61e-01    -  1.00e+00 1.00e+00f  1
 241  2.2940186e+04 2.31e-01 8.66e+01  -3.8 4.81e-01    -  1.00e+00 1.00e+00h  1
 242  2.7340561e+04 5.78e-02 2.00e+01  -3.8 2.40e-01    -  1.00e+00 1.00e+00h  1
 243  3.0062787e+04 1.45e-02 4.12e+01  -3.8 1.20e-01    -  1.00e+00 1.00e+00h  1
 244  3.1585208e+04 3.64e-03 8.35e+01  -3.8 6.03e-02    -  1.00e+00 1.00e+00h  1
 245  3.2415235e+04 9.30e-04 1.70e+02  -3.8 3.05e-02    -  1.00e+00 1.00e+00h  1
 246  3.2880898e+04 2.53e-04 4.82e+02  -3.8 1.59e-02    -  1.00e+00 1.00e+00h  1
 247  3.2766492e+04 3.87e-04 4.09e+03  -3.8 2.21e-02    -  1.00e+00 1.00e+00f  1
 248  3.2826860e+04 2.96e-04 3.13e+03  -3.8 9.46e-03    -  1.00e+00 2.50e-01h  3
 249  3.2883768e+04 2.26e-04 2.39e+03  -3.8 8.31e-03    -  1.00e+00 2.50e-01h  3
iter    objective    inf_pr   inf_du lg(mu)  ||d||  lg(rg) alpha_du alpha_pr  ls
 250  3.2937373e+04 1.73e-04 1.83e+03  -3.8 7.36e-03    -  1.00e+00 2.50e-01h  3
 251  3.2987834e+04 1.32e-04 1.40e+03  -3.8 6.90e-03    -  1.00e+00 2.50e-01h  3
 252  3.3035306e+04 1.01e-04 1.07e+03  -3.8 6.47e-03    -  1.00e+00 2.50e-01h  3
 253  3.3079942e+04 7.75e-05 8.19e+02  -3.8 6.06e-03    -  1.00e+00 2.50e-01h  3
 254  3.3080001e+04 1.64e-05 4.00e+04  -3.8 4.85e-05   8.9 1.00e+00 1.00e+00h  1
 255  3.3121452e+04 1.30e-05 3.07e+04  -3.8 5.62e-03    -  1.00e+00 2.50e-01h  3
 256  3.3121589e+04 5.17e-05 2.42e+04  -3.8 8.79e-05   8.4 1.00e+00 1.00e+00h  1
 257  3.3121572e+04 3.02e-06 6.06e+03  -3.8 7.37e-05   8.0 1.00e+00 1.00e+00H  1
 258  3.3121564e+04 2.49e-05 1.17e+03  -3.8 3.85e-05   7.5 1.00e+00 1.00e+00h  1
 259  3.3121580e+04 5.86e-05 2.10e+03  -3.8 2.04e-04   7.0 1.00e+00 1.00e+00h  1
iter    objective    inf_pr   inf_du lg(mu)  ||d||  lg(rg) alpha_du alpha_pr  ls
 260  3.3121590e+04 4.18e-05 6.52e+02  -3.8 2.86e-04   6.5 1.00e+00 5.00e-01h  2
 261  3.3121604e+04 1.51e-05 1.87e+03  -3.8 8.51e-03   6.1 1.00e+00 1.25e-01h  4
 262  3.3121636e+04 1.28e-05 1.67e+03  -3.8 5.59e-04   6.5 1.00e+00 1.00e+00h  1
 263  3.3121640e+04 9.79e-07 1.93e+03  -3.8 3.35e-04   6.9 1.00e+00 2.50e-01h  3
 264r 3.3121640e+04 9.79e-07 8.58e+02  -3.8 0.00e+00   6.4 0.00e+00 4.77e-07R 22
 265r 3.3143101e+04 1.80e-04 2.98e+02  -3.8 8.20e-02    -  1.00e+00 1.64e-01f  1
 266r 3.3259222e+04 8.51e-05 2.80e-03  -3.8 9.22e-03    -  1.00e+00 1.00e+00h  1
 267r 3.3289760e+04 8.75e-06 9.31e-01  -5.7 2.62e-03    -  1.00e+00 9.74e-01f  1
 268r 3.3401374e+04 1.42e-05 2.26e-04  -5.7 3.76e-03    -  1.00e+00 1.00e+00h  1
 269r 3.3488252e+04 9.00e-06 2.73e-04  -5.7 3.00e-03    -  1.00e+00 1.00e+00h  1
iter    objective    inf_pr   inf_du lg(mu)  ||d||  lg(rg) alpha_du alpha_pr  ls
 270r 3.3526088e+04 4.17e-06 3.08e-04  -5.7 2.04e-03    -  1.00e+00 1.00e+00h  1
 271r 3.3526563e+04 2.64e-07 3.62e-05  -5.7 5.14e-04    -  1.00e+00 1.00e+00h  1
 272r 3.3526563e+04 2.64e-07 5.81e+02  -3.8 0.00e+00    -  0.00e+00 4.77e-07R 22
 273r 3.3526762e+04 7.38e-08 6.58e-01  -3.8 2.04e-05    -  1.00e+00 3.57e-01f  2
 274r 3.3526762e+04 7.38e-08 2.32e+02  -3.8 0.00e+00    -  0.00e+00 4.77e-07R 22
 275r 3.3527314e+04 8.29e-09 1.54e-07  -3.8 2.02e-05    -  1.00e+00 1.00e+00f  1
 276r 3.3527314e+04 8.29e-09 2.75e+01  -3.8 0.00e+00    -  0.00e+00 4.77e-07R 22
 277r 3.3527857e+04 3.88e-10 1.49e-07  -3.8 1.97e-05    -  1.00e+00 1.00e+00f  1
 278r 3.3527857e+04 3.88e-10 1.29e+00  -3.8 0.00e+00    -  0.00e+00 4.77e-07R 22
 279r 3.3528390e+04 3.70e-10 1.43e-07  -3.8 1.92e-05    -  1.00e+00 1.00e+00f  1
iter    objective    inf_pr   inf_du lg(mu)  ||d||  lg(rg) alpha_du alpha_pr  ls
 280r 3.3528390e+04 3.70e-10 1.23e+00  -3.8 0.00e+00    -  0.00e+00 4.77e-07R 22
 281r 3.3528914e+04 3.53e-10 1.37e-07  -3.8 1.88e-05    -  1.00e+00 1.00e+00f  1
 282r 3.3528914e+04 3.53e-10 1.17e+00  -3.8 0.00e+00    -  0.00e+00 4.77e-07R 22
 283r 3.3529430e+04 3.37e-10 1.32e-07  -3.8 1.84e-05    -  1.00e+00 1.00e+00f  1
 284  1.7456959e+04 9.64e-01 9.40e+00  -3.8 9.82e-01    -  1.00e+00 1.00e+00f  1
 285  1.9742020e+04 5.42e-01 5.86e+00  -3.8 4.91e-01    -  1.00e+00 5.00e-01h  2
 286  2.5136114e+04 1.36e-01 9.74e+00  -3.8 3.68e-01    -  1.00e+00 1.00e+00h  1
 287  2.8910472e+04 3.39e-02 2.72e+01  -3.8 1.84e-01    -  1.00e+00 1.00e+00h  1
 288  3.1111079e+04 8.49e-03 6.11e+01  -3.8 9.21e-02    -  1.00e+00 1.00e+00h  1
 289  3.2298865e+04 2.13e-03 1.24e+02  -3.8 4.61e-02    -  1.00e+00 1.00e+00h  1
iter    objective    inf_pr   inf_du lg(mu)  ||d||  lg(rg) alpha_du alpha_pr  ls
 290  3.2375851e+04 1.87e-03 1.13e+02  -3.8 2.32e-02    -  1.00e+00 1.25e-01h  4
 291  3.2412066e+04 1.76e-03 1.07e+02  -3.8 2.18e-02    -  1.00e+00 6.25e-02h  5
 292  3.2414262e+04 1.75e-03 1.06e+02  -3.8 2.11e-02    -  1.00e+00 3.91e-03h  9
 293  3.2414810e+04 1.75e-03 1.06e+02  -3.8 2.10e-02    -  1.00e+00 9.77e-04h 11
 294  3.2415084e+04 1.75e-03 1.06e+02  -3.8 2.10e-02    -  1.00e+00 4.88e-04h 12
 295  3.2981972e+04 4.42e-04 2.49e+02  -3.8 2.10e-02    -  1.00e+00 1.00e+00h  1
 296  3.3281174e+04 1.16e-04 4.50e+02  -3.8 1.07e-02    -  1.00e+00 1.00e+00h  1
 297  3.3242007e+04 1.42e-06 4.15e-01  -3.8 1.10e-03    -  1.00e+00 1.00e+00f  1
 298  3.3249853e+04 1.37e-06 1.87e+00  -8.6 4.01e-03    -  1.00e+00 6.25e-02h  5
 299  3.3257580e+04 1.32e-06 3.67e+00  -8.6 3.95e-03    -  1.00e+00 6.25e-02h  5
iter    objective    inf_pr   inf_du lg(mu)  ||d||  lg(rg) alpha_du alpha_pr  ls
 300  3.3265188e+04 1.28e-06 5.39e+00  -8.6 3.89e-03    -  1.00e+00 6.25e-02h  5
 301  3.3272680e+04 1.23e-06 7.04e+00  -8.6 3.83e-03    -  1.00e+00 6.25e-02h  5
 302  3.3280057e+04 1.19e-06 8.62e+00  -8.6 3.77e-03    -  1.00e+00 6.25e-02h  5
 303  3.3281709e+04 1.43e-08 5.47e-04  -8.6 4.49e-05    -  1.00e+00 1.00e+00h  1
 304  3.3281717e+04 1.43e-08 1.47e-05  -9.0 2.88e-06    -  1.00e+00 1.00e+00h  1
 305  3.3281722e+04 1.43e-08 1.45e-05  -9.0 2.83e-06    -  1.00e+00 1.00e+00h  1
 306  3.3281726e+04 1.43e-08 1.45e-05  -9.0 2.83e-06    -  1.00e+00 1.00e+00h  1
 307  3.3281730e+04 1.43e-08 1.45e-05  -9.0 2.83e-06    -  1.00e+00 1.00e+00h  1
 308  3.3281734e+04 1.42e-08 1.44e-05  -9.0 2.82e-06    -  1.00e+00 1.00e+00h  1
 309  3.3281738e+04 1.42e-08 1.44e-05  -9.0 2.82e-06    -  1.00e+00 1.00e+00h  1
iter    objective    inf_pr   inf_du lg(mu)  ||d||  lg(rg) alpha_du alpha_pr  ls
 310  3.3281742e+04 1.42e-08 1.43e-05  -9.0 2.81e-06    -  1.00e+00 1.00e+00h  1
 311  3.3281746e+04 1.42e-08 1.43e-05  -9.0 2.81e-06    -  1.00e+00 1.00e+00h  1
 312  3.3281751e+04 1.42e-08 1.43e-05  -9.0 2.80e-06    -  1.00e+00 1.00e+00h  1
 313  3.3281755e+04 1.42e-08 1.42e-05  -9.0 2.80e-06    -  1.00e+00 1.00e+00h  1
 314  3.3281759e+04 1.42e-08 1.42e-05  -9.0 2.80e-06    -  1.00e+00 1.00e+00h  1
 315  3.3281759e+04 1.42e-08 1.10e-03  -9.0 1.23e-09   6.0 1.00e+00 1.00e+00h  1
 316  3.3281759e+04 1.42e-08 1.10e-03  -9.0 7.40e-09   5.5 1.00e+00 1.91e-06h 20

Number of Iterations....: 316

                                   (scaled)                 (unscaled)
Objective...............:   3.3281758891673751e+04    3.3281758891673751e+04
Dual infeasibility......:   1.1024150751366424e-03    1.1024150751366424e-03
Constraint violation....:   1.4180718031851997e-08    1.4180718031851997e-08
Complementarity.........:   0.0000000000000000e+00    0.0000000000000000e+00
Overall NLP error.......:   1.4180718031851997e-08    1.1024150751366424e-03


Number of objective function evaluations             = 1522
Number of objective gradient evaluations             = 293
Number of equality constraint evaluations            = 1602
Number of inequality constraint evaluations          = 0
Number of equality constraint Jacobian evaluations   = 336
Number of inequality constraint Jacobian evaluations = 0
Number of Lagrangian Hessian evaluations             = 317
Total CPU secs in IPOPT (w/o function evaluations)   =     18.180
Total CPU secs in NLP function evaluations           =      1.557

EXIT: Solved To Acceptable Level.
Note: The following floating-point exceptions are signalling: IEEE_UNDERFLOW_FLAG IEEE_DENORMAL

************************ CUTEst statistics ************************


 Package used            :  IPOPT
 Problem                 :  LUKVLE17  
 # variables             =            9997
 # constraints           =            7497
 # objective functions   =        0.1816000E+04
 # objective gradients   =        0.2940000E+03
 # objective Hessians    =        0.3000000E+03
 # Hessian-vector prdct  =        0.0000000E+00
 # constraints functions =        0.1940000E+04
 # constraints gradients =        0.3380000E+03
 # constraints Hessians  =        0.3000000E+03
 Exit code               =               1
 Final f                 =   0.3328176E+05
 Set up time             =            0.16 seconds
 Solve time              =           27.52 seconds


******************************************************************

System Time =      18.2649993896 s.
